(set-logic QF_S)
(declare-const x String)
(declare-const y String)
(assert (str.in.re x (str.to.re "ww")))
(assert (= 6 (str.len x)))
(assert (not (= x "ZZZZww")))
(assert (not (= x "ZZwwww")))
(assert (not (= x "wwZZww")))
(check-sat)
